3309.0 94549.0 
3368.0 93712.0 
3354.0 93779.0 
3292.0 95473.0 
3252.0 99132.0 
3345.0 93830.0 
3428.0 93278.0 
3370.0 93580.0 
3308.0 94559.0 
3277.0 97055.0 
3246.0 99388.0 
3310.0 93885.0 
3288.0 95993.0 
3272.0 97709.0 
3449.0 93134.0 
3302.0 95048.0 
3229.0 99513.0 
3280.0 96189.0 
